c CNF file generated from BLIF2CNF script.
c Original BLIF file was blif/tcon.blif
p cnf 65 136
-1 -5 0
2 -5 0
5 1 -2  0
-5 4 0
1 -6 0
3 -6 0
6 -1 -3  0
-6 4 0
2 -7 0
3 -7 0
7 -2 -3  0
-7 4 0
-4 5 6 7  0
-1 -11 0
8 -11 0
11 1 -8  0
-11 10 0
1 -12 0
9 -12 0
12 -1 -9  0
-12 10 0
8 -13 0
9 -13 0
13 -8 -9  0
-13 10 0
-10 11 12 13  0
-1 -17 0
14 -17 0
17 1 -14  0
-17 16 0
1 -18 0
15 -18 0
18 -1 -15  0
-18 16 0
14 -19 0
15 -19 0
19 -14 -15  0
-19 16 0
-16 17 18 19  0
-1 -23 0
20 -23 0
23 1 -20  0
-23 22 0
1 -24 0
21 -24 0
24 -1 -21  0
-24 22 0
20 -25 0
21 -25 0
25 -20 -21  0
-25 22 0
-22 23 24 25  0
-1 -29 0
26 -29 0
29 1 -26  0
-29 28 0
1 -30 0
27 -30 0
30 -1 -27  0
-30 28 0
26 -31 0
27 -31 0
31 -26 -27  0
-31 28 0
-28 29 30 31  0
-1 -35 0
32 -35 0
35 1 -32  0
-35 34 0
1 -36 0
33 -36 0
36 -1 -33  0
-36 34 0
32 -37 0
33 -37 0
37 -32 -33  0
-37 34 0
-34 35 36 37  0
-1 -41 0
38 -41 0
41 1 -38  0
-41 40 0
1 -42 0
39 -42 0
42 -1 -39  0
-42 40 0
38 -43 0
39 -43 0
43 -38 -39  0
-43 40 0
-40 41 42 43  0
-1 -47 0
44 -47 0
47 1 -44  0
-47 46 0
1 -48 0
45 -48 0
48 -1 -45  0
-48 46 0
44 -49 0
45 -49 0
49 -44 -45  0
-49 46 0
-46 47 48 49  0
2 -51 0
51 -2  0
-51 50 0
-50 51  0
8 -53 0
53 -8  0
-53 52 0
-52 53  0
14 -55 0
55 -14  0
-55 54 0
-54 55  0
20 -57 0
57 -20  0
-57 56 0
-56 57  0
26 -59 0
59 -26  0
-59 58 0
-58 59  0
32 -61 0
61 -32  0
-61 60 0
-60 61  0
38 -63 0
63 -38  0
-63 62 0
-62 63  0
44 -65 0
65 -44  0
-65 64 0
-64 65  0
